100 8
531 721
78 559
447 361
572 295
380 341
298 318
189 130
565 191
339 195
329 560
575 311
690 860
333 791
896 528
404 657
381 53
754 811
252 425
136 504
530 333
584 600
836 512
196 445
596 667
439 872
491 395
96 555
480 286
56 603
370 26
127 559
809 844
839 764
647 237
596 767
288 185
305 839
12 502
649 882
401 707
571 658
181 587
54 577
920 531
915 764
546 797
264 562
340 301
514 783
329 376
223 162
439 849
286 603
161 471
12 541
947 453
8 554
641 164
567 758
554 631
664 482
254 373
383 51
340 126
9 428
710 174
568 648
504 312
804 734
801 861
691 871
605 323
54 569
608 722
461 775
521 525
531 480
132 612
448 398
261 708
531 200
553 630
332 870
826 811
625 741
523 686
318 744
148 516
565 214
564 854
792 635
699 338
525 348
557 629
926 518
493 752
67 509
405 189
266 873
323 312
